VertexID	Color
35	1
39	1
13	1
37	1
41	1
15	1
2	1
17	1
21	1
6	1
24	1
4	1
19	1
22	1
8	1
26	1
56	1
40	1
44	1
43	1
42	1
45	2
47	2
25	2
23	2
49	2
27	2
1	2
3	2
29	2
7	2
14	2
12	2
5	2
31	2
34	2
36	2
18	2
11	2
30	2
53	2
54	2
51	2
33	2
52	2
55	2
9	3
16	3
46	3
28	3
10	3
20	3
38	3
50	3
32	3
48	4
